Route #1: 1 2 3 9 20 15 25 37 28 42 49 54 58 71 65 76 81 77 78 67 60 66 59 50 51 44 39 43 38 29 21 22 11 10 4 5 16 12 6 17 13 14 23 32 31 30 45 52 55 46 33 26 34 24 18 7 8 19 27 41 36 35 48 57 53 40 47 56 64 69 70 75 80 95 94 87 79 93 99 92 91 85 86 74 63 68 73 62 61 72 83 84 98 90 82 97 96 89 88 100
Cost 47193
